p cnf 297 638
c ind 56 73 12 75 23 264 280 59 208 26 211 141 278 135 46 276 238 1 22 288 270 40 245 5 282 28 36 7 25 292 296 18 147 16 19 44 266 61 17 89 274 143 48 15 284 134 30 6 272 4 13 11 2 10 290 20 9 294 236 260 24 8 201 14 174 268 32 262 151 239 54 199 34 42 202 248 160 21 38 47 286 3 65 0
-27 -30 0
-27 29 0
-30 29 0
-29 -32 0
-29 31 0
-32 31 0
-31 -34 0
-31 33 0
-34 33 0
-33 -36 0
-33 35 0
-36 35 0
-35 -38 0
-35 37 0
-38 37 0
-37 -40 0
-37 39 0
-40 39 0
-39 -42 0
-39 41 0
-42 41 0
-41 -44 0
-41 43 0
-44 43 0
28 30 32 34 36 38 40 42 44 0
-45 -30 0
45 30 0
-48 5 0
-49 46 0
-49 47 0
-49 48 0
-46 -47 -48 49 0
-50 51 0
-52 50 0
-53 -49 50 0
53 49 0
53 -50 0
-54 6 0
-54 -48 0
-55 46 0
-55 54 0
-46 -54 55 0
-57 56 0
-57 48 0
-56 -48 57 0
-58 55 57 0
58 -55 0
58 -57 0
-59 4 0
-60 59 0
-60 54 0
-59 -54 60 0
-47 61 0
-62 61 0
-62 48 0
-61 -48 62 0
-63 60 62 0
63 -60 0
63 -62 0
-64 58 0
-64 63 0
-58 -63 64 0
-65 1 0
-66 65 0
-66 54 0
-65 -54 66 0
-67 68 0
-69 67 0
-70 67 0
-70 48 0
-67 -48 70 0
-71 66 70 0
71 -66 0
71 -70 0
-72 -64 71 0
72 64 0
72 -71 0
-73 46 0
-73 -59 0
-74 73 0
-74 54 0
-73 -54 74 0
-75 56 0
-76 75 0
-76 48 0
-75 -48 76 0
-77 74 76 0
77 -74 0
77 -76 0
-78 59 0
-78 54 0
-59 -54 78 0
-79 61 0
-79 48 0
-61 -48 79 0
-80 78 79 0
80 -78 0
80 -79 0
-81 77 0
-81 80 0
-77 -80 81 0
-82 83 0
-84 82 0
-85 -81 82 0
85 81 0
85 -82 0
-86 73 0
-86 54 0
-73 -54 86 0
-87 75 0
-87 48 0
-75 -48 87 0
-88 86 87 0
88 -86 0
88 -87 0
-89 1 0
-65 89 0
-90 89 0
-90 54 0
-89 -54 90 0
-91 92 0
-93 91 0
-94 91 0
-94 48 0
-91 -48 94 0
-95 90 94 0
95 -90 0
95 -94 0
-96 -88 95 0
96 88 0
96 -95 0
-97 46 0
-97 47 0
-97 48 0
-46 -47 -48 97 0
-98 50 0
-50 99 0
-100 -97 50 0
100 97 0
100 -50 0
-101 46 0
-101 54 0
-46 -54 101 0
-102 56 0
-102 48 0
-56 -48 102 0
-103 101 102 0
103 -101 0
103 -102 0
-104 59 0
-104 54 0
-59 -54 104 0
-105 61 0
-105 48 0
-61 -48 105 0
-106 104 105 0
106 -104 0
106 -105 0
-107 103 0
-107 106 0
-103 -106 107 0
-108 65 0
-108 54 0
-65 -54 108 0
-109 67 0
-67 110 0
-111 67 0
-111 48 0
-67 -48 111 0
-112 108 111 0
112 -108 0
112 -111 0
-113 -107 112 0
113 107 0
113 -112 0
-114 73 0
-114 54 0
-73 -54 114 0
-115 75 0
-115 48 0
-75 -48 115 0
-116 114 115 0
116 -114 0
116 -115 0
-117 59 0
-117 54 0
-59 -54 117 0
-118 61 0
-118 48 0
-61 -48 118 0
-119 117 118 0
119 -117 0
119 -118 0
-120 116 0
-120 119 0
-116 -119 120 0
-121 82 0
-82 122 0
-123 -120 82 0
123 120 0
123 -82 0
-124 73 0
-124 54 0
-73 -54 124 0
-125 75 0
-125 48 0
-75 -48 125 0
-126 124 125 0
126 -124 0
126 -125 0
-127 89 0
-127 54 0
-89 -54 127 0
-128 91 0
-91 129 0
-130 91 0
-130 48 0
-91 -48 130 0
-131 127 130 0
131 -127 0
131 -130 0
-132 -126 131 0
132 126 0
132 -131 0
-133 34 0
-133 100 0
-133 113 0
-133 123 0
-133 132 0
-34 -100 -113 -123 -132 133 0
-135 6 0
-135 54 0
-135 -48 0
-136 46 0
-136 134 0
-136 135 0
-46 -134 -135 136 0
-138 137 0
-137 139 0
-140 -136 137 0
140 136 0
140 -137 0
-141 5 0
-48 141 0
-141 -135 0
-142 46 0
-142 141 0
-46 -141 142 0
-144 143 0
-144 135 0
-143 -135 144 0
-145 142 144 0
145 -142 0
145 -144 0
-146 59 0
-146 141 0
-59 -141 146 0
-134 147 0
-148 147 0
-148 135 0
-147 -135 148 0
-149 146 148 0
149 -146 0
149 -148 0
-150 145 0
-150 149 0
-145 -149 150 0
-151 2 0
-151 -65 0
-151 -89 0
-152 151 0
-152 141 0
-151 -141 152 0
-154 153 0
-153 155 0
-156 153 0
-156 135 0
-153 -135 156 0
-157 152 156 0
157 -152 0
157 -156 0
-158 -150 157 0
158 150 0
158 -157 0
-159 73 0
-159 141 0
-73 -141 159 0
-160 143 0
-161 160 0
-161 135 0
-160 -135 161 0
-162 159 161 0
162 -159 0
162 -161 0
-163 59 0
-163 141 0
-59 -141 163 0
-164 147 0
-164 135 0
-147 -135 164 0
-165 163 164 0
165 -163 0
165 -164 0
-166 162 0
-166 165 0
-162 -165 166 0
-168 167 0
-167 169 0
-170 -166 167 0
170 166 0
170 -167 0
-171 73 0
-171 141 0
-73 -141 171 0
-172 160 0
-172 135 0
-160 -135 172 0
-173 171 172 0
173 -171 0
173 -172 0
-174 2 0
-151 174 0
-174 -65 0
-174 -89 0
-175 174 0
-175 141 0
-174 -141 175 0
-177 176 0
-176 178 0
-179 176 0
-179 135 0
-176 -135 179 0
-180 175 179 0
180 -175 0
180 -179 0
-181 -173 180 0
181 173 0
181 -180 0
-182 36 0
-182 140 0
-182 158 0
-182 170 0
-182 181 0
-36 -140 -158 -170 -181 182 0
-183 46 0
-183 47 0
-183 48 0
-46 -47 -48 183 0
-184 -183 50 0
184 183 0
184 -50 0
-185 46 0
-185 54 0
-46 -54 185 0
-186 56 0
-186 48 0
-56 -48 186 0
-187 185 186 0
187 -185 0
187 -186 0
-188 59 0
-188 54 0
-59 -54 188 0
-189 61 0
-189 48 0
-61 -48 189 0
-190 188 189 0
190 -188 0
190 -189 0
-191 187 0
-191 190 0
-187 -190 191 0
-192 65 0
-192 54 0
-65 -54 192 0
-193 67 0
-193 48 0
-67 -48 193 0
-194 192 193 0
194 -192 0
194 -193 0
-195 -191 194 0
195 191 0
195 -194 0
-196 73 0
-196 54 0
-73 -54 196 0
-197 75 0
-197 48 0
-75 -48 197 0
-198 196 197 0
198 -196 0
198 -197 0
-199 6 0
-199 54 0
-199 135 0
-199 -48 0
-199 -141 0
-200 59 0
-200 199 0
-59 -199 200 0
-202 5 0
-48 202 0
-141 202 0
-202 -199 0
-203 201 0
-203 202 0
-201 -202 203 0
-204 200 203 0
204 -200 0
204 -203 0
-205 198 0
-205 204 0
-198 -204 205 0
-206 -205 82 0
206 205 0
206 -82 0
-207 73 0
-207 199 0
-73 -199 207 0
-209 208 0
-209 202 0
-208 -202 209 0
-210 207 209 0
210 -207 0
210 -209 0
-212 211 0
-212 199 0
-211 -199 212 0
-214 213 0
-213 215 0
-216 213 0
-216 202 0
-213 -202 216 0
-217 212 216 0
217 -212 0
217 -216 0
-218 -210 217 0
218 210 0
218 -217 0
-219 184 0
-219 195 0
-219 206 0
-219 218 0
-219 32 0
-184 -195 -206 -218 -32 219 0
-220 46 0
-220 134 0
-220 135 0
-46 -134 -135 220 0
-221 -220 137 0
221 220 0
221 -137 0
-222 46 0
-222 141 0
-46 -141 222 0
-223 143 0
-223 135 0
-143 -135 223 0
-224 222 223 0
224 -222 0
224 -223 0
-225 59 0
-225 141 0
-59 -141 225 0
-226 147 0
-226 135 0
-147 -135 226 0
-227 225 226 0
227 -225 0
227 -226 0
-228 224 0
-228 227 0
-224 -227 228 0
-229 151 0
-229 141 0
-151 -141 229 0
-230 153 0
-230 135 0
-153 -135 230 0
-231 229 230 0
231 -229 0
231 -230 0
-232 -228 231 0
232 228 0
232 -231 0
-233 73 0
-233 141 0
-73 -141 233 0
-234 160 0
-234 135 0
-160 -135 234 0
-235 233 234 0
235 -233 0
235 -234 0
-236 5 0
-236 48 0
-236 141 0
-236 202 0
-236 -54 0
-236 -135 0
-236 -199 0
-237 59 0
-237 236 0
-59 -236 237 0
-239 6 0
-54 239 0
-135 239 0
-199 239 0
-239 -236 0
-240 238 0
-240 239 0
-238 -239 240 0
-241 237 240 0
241 -237 0
241 -240 0
-242 235 0
-242 241 0
-235 -241 242 0
-243 -242 167 0
243 242 0
243 -167 0
-244 73 0
-244 236 0
-73 -236 244 0
-245 143 0
-245 160 0
-246 245 0
-246 239 0
-245 -239 246 0
-247 244 246 0
247 -244 0
247 -246 0
-249 248 0
-249 236 0
-248 -236 249 0
-251 250 0
-250 252 0
-253 250 0
-253 239 0
-250 -239 253 0
-254 249 253 0
254 -249 0
254 -253 0
-255 -247 254 0
255 247 0
255 -254 0
-256 221 0
-256 232 0
-256 243 0
-256 255 0
-256 28 0
-221 -232 -243 -255 -28 256 0
-257 133 182 219 256 0
257 -133 0
257 -182 0
257 -219 0
257 -256 0
-258 -257 0
258 257 0
-259 1 0
-259 2 0
-259 3 0
-259 4 0
-259 5 0
-259 6 0
-259 7 0
-259 8 0
-259 9 0
-259 10 0
-259 11 0
-259 12 0
-259 13 0
-259 14 0
-259 15 0
-259 16 0
-259 17 0
-259 18 0
-259 19 0
-259 20 0
-259 21 0
-259 22 0
-259 23 0
-259 24 0
-259 25 0
-259 26 0
-259 45 0
-259 53 0
-259 72 0
-259 85 0
-259 96 0
-259 258 0
-1 -2 -3 -4 -5 -6 -7 -8 -9 -10 -11 -12 -13 -14 -15 -16 -17 -18 -19 -20 -21 -22 -23 -24 -25 -26 -45 -53 -72 -85 -96 -258 259 0
259 0
-260 261 0
260 0
-262 263 0
-263 -264 0
-263 265 0
-264 265 0
-265 -266 0
-265 267 0
-266 267 0
-267 -268 0
-267 269 0
-268 269 0
262 264 266 268 0
-270 271 0
270 0
-272 273 0
-273 -274 0
-273 275 0
-274 275 0
-275 -276 0
-275 277 0
-276 277 0
-277 -278 0
-277 279 0
-278 279 0
272 274 276 278 0
-280 281 0
280 0
-282 283 0
282 0
-284 285 0
284 0
-286 287 0
286 0
-288 289 0
288 0
-290 291 0
290 0
-292 293 0
292 0
-294 295 0
294 0
-296 297 0
296 0
c 56 -> SNNT.QueryGeneration.ConstraintVariable(0.62*x2-1.0*x4<=0.51)
c 35 -> Intermediate
c 60 -> Intermediate
c 220 -> Intermediate
c 73 -> SNNT.QueryGeneration.ConstraintVariable(-88000.0*x4<44000.0)
c 115 -> Intermediate
c 112 -> Intermediate
c 185 -> Intermediate
c 86 -> Intermediate
c 207 -> Intermediate
c 263 -> Intermediate
c 242 -> Intermediate
c 183 -> Intermediate
c 224 -> Intermediate
c 12 -> SNNT.QueryGeneration.ConstraintVariable(1.0*x8<=100.0)
c 75 -> SNNT.QueryGeneration.ConstraintVariable(0.62*x2-1.0*x4<0.5)
c 23 -> SNNT.QueryGeneration.ConstraintVariable(-1.0*x10<=100.0)
c 111 -> Intermediate
c 264 -> SNNT.QueryGeneration.ApproxCase(2, 2)
c 41 -> Intermediate
c 130 -> Intermediate
c 125 -> Intermediate
c 77 -> Intermediate
c 172 -> Intermediate
c 71 -> Intermediate
c 66 -> Intermediate
c 103 -> Intermediate
c 280 -> SNNT.QueryGeneration.ApproxCase(5, 1)
c 59 -> SNNT.QueryGeneration.ConstraintVariable(88000.0*x4<=-44000.0)
c 208 -> SNNT.QueryGeneration.ConstraintVariable(0.12*x2-0.2*x4<0.08)
c 26 -> SNNT.QueryGeneration.ConstraintVariable(-1.0*x13<=100.0)
c 211 -> SNNT.QueryGeneration.ConstraintVariable(-1.0*x1-0.06*x4<0.02)
c 127 -> Intermediate
c 116 -> Intermediate
c 100 -> Intermediate
c 79 -> Intermediate
c 230 -> Intermediate
c 279 -> Intermediate
c 195 -> Intermediate
c 141 -> SNNT.QueryGeneration.ConstraintVariable(-200.0*x2<=0.0)
c 278 -> SNNT.QueryGeneration.ApproxCase(4, 4)
c 135 -> SNNT.QueryGeneration.ConstraintVariable(200.0*x2<0.0)
c 222 -> Intermediate
c 107 -> Intermediate
c 46 -> SNNT.QueryGeneration.ConstraintVariable(-88000.0*x4<=45000.0)
c 276 -> SNNT.QueryGeneration.ApproxCase(4, 3)
c 295 -> Intermediate
c 57 -> Intermediate
c 152 -> Intermediate
c 247 -> Intermediate
c 170 -> Intermediate
c 238 -> SNNT.QueryGeneration.ConstraintVariable(0.12*x20.2*x4<=-0.08)
c 78 -> Intermediate
c 133 -> Intermediate
c 72 -> Intermediate
c 258 -> Intermediate
c 184 -> Intermediate
c 1 -> SNNT.QueryGeneration.ConstraintVariable(-16000.0*x1<=8000.0)
c 22 -> SNNT.QueryGeneration.ConstraintVariable(-1.0*x9<=100.0)
c 237 -> Intermediate
c 206 -> Intermediate
c 288 -> SNNT.QueryGeneration.ApproxCase(9, 1)
c 270 -> SNNT.QueryGeneration.ApproxCase(3, 1)
c 33 -> Intermediate
c 40 -> SNNT.QueryGeneration.IsMaxCase(Formula[1.0*x9-1.0*x11<0.0, 1.0*x5-1.0*x11<0.0, 1.0*x8-1.0*x11<0.0, 1.0*x6-1.0*x11<0.0, 1.0*x7-1.0*x11<0.0, -1.0*x111.0*x13<0.0, 1.0*x10-1.0*x11<0.0, -1.0*x111.0*x12<0.0])
c 113 -> Intermediate
c 231 -> Intermediate
c 245 -> SNNT.QueryGeneration.ConstraintVariable(-0.12*x2-0.2*x4<0.08)
c 254 -> Intermediate
c 283 -> Intermediate
c 165 -> Intermediate
c 142 -> Intermediate
c 5 -> SNNT.QueryGeneration.ConstraintVariable(-200.0*x2<=100.0)
c 55 -> Intermediate
c 114 -> Intermediate
c 265 -> Intermediate
c 136 -> Intermediate
c 117 -> Intermediate
c 45 -> Intermediate
c 145 -> Intermediate
c 282 -> SNNT.QueryGeneration.ApproxCase(6, 1)
c 275 -> Intermediate
c 158 -> Intermediate
c 218 -> Intermediate
c 28 -> SNNT.QueryGeneration.IsMaxCase(Formula[1.0*x5-1.0*x9<0.0, 1.0*x8-1.0*x9<0.0, 1.0*x6-1.0*x9<0.0, 1.0*x7-1.0*x9<0.0, -1.0*x91.0*x13<0.0, -1.0*x91.0*x11<0.0, -1.0*x91.0*x10<0.0, -1.0*x91.0*x12<0.0])
c 148 -> Intermediate
c 36 -> SNNT.QueryGeneration.IsMaxCase(Formula[-1.0*x71.0*x9<0.0, 1.0*x5-1.0*x7<0.0, -1.0*x71.0*x8<0.0, 1.0*x6-1.0*x7<0.0, -1.0*x71.0*x13<0.0, -1.0*x71.0*x11<0.0, -1.0*x71.0*x10<0.0, -1.0*x71.0*x12<0.0])
c 118 -> Intermediate
c 162 -> Intermediate
c 7 -> SNNT.QueryGeneration.ConstraintVariable(-200.0*x3<=0.0)
c 25 -> SNNT.QueryGeneration.ConstraintVariable(-1.0*x12<=100.0)
c 95 -> Intermediate
c 203 -> Intermediate
c 292 -> SNNT.QueryGeneration.ApproxCase(11, 1)
c 232 -> Intermediate
c 296 -> SNNT.QueryGeneration.ApproxCase(13, 1)
c 18 -> SNNT.QueryGeneration.ConstraintVariable(-1.0*x5<=100.0)
c 240 -> Intermediate
c 147 -> SNNT.QueryGeneration.ConstraintVariable(0.62*x21.0*x4<=-0.5)
c 157 -> Intermediate
c 16 -> SNNT.QueryGeneration.ConstraintVariable(1.0*x12<=100.0)
c 287 -> Intermediate
c 19 -> SNNT.QueryGeneration.ConstraintVariable(-1.0*x6<=100.0)
c 44 -> SNNT.QueryGeneration.IsMaxCase(Formula[1.0*x9-1.0*x12<0.0, 1.0*x5-1.0*x12<0.0, 1.0*x8-1.0*x12<0.0, 1.0*x6-1.0*x12<0.0, 1.0*x7-1.0*x12<0.0, -1.0*x121.0*x13<0.0, 1.0*x11-1.0*x12<0.0, 1.0*x10-1.0*x12<0.0])
c 266 -> SNNT.QueryGeneration.ApproxCase(2, 3)
c 31 -> Intermediate
c 217 -> Intermediate
c 146 -> Intermediate
c 74 -> Intermediate
c 61 -> SNNT.QueryGeneration.ConstraintVariable(-0.62*x21.0*x4<=-0.5)
c 29 -> Intermediate
c 212 -> Intermediate
c 228 -> Intermediate
c 159 -> Intermediate
c 193 -> Intermediate
c 226 -> Intermediate
c 101 -> Intermediate
c 105 -> Intermediate
c 223 -> Intermediate
c 285 -> Intermediate
c 17 -> SNNT.QueryGeneration.ConstraintVariable(1.0*x13<=100.0)
c 271 -> Intermediate
c 166 -> Intermediate
c 89 -> SNNT.QueryGeneration.ConstraintVariable(-3.52e7*x1<-220000.0)
c 198 -> Intermediate
c 80 -> Intermediate
c 274 -> SNNT.QueryGeneration.ApproxCase(4, 2)
c 246 -> Intermediate
c 143 -> SNNT.QueryGeneration.ConstraintVariable(-0.62*x2-1.0*x4<=0.51)
c 48 -> SNNT.QueryGeneration.ConstraintVariable(-200.0*x2<0.0)
c 15 -> SNNT.QueryGeneration.ConstraintVariable(1.0*x11<=100.0)
c 97 -> Intermediate
c 284 -> SNNT.QueryGeneration.ApproxCase(7, 1)
c 134 -> SNNT.QueryGeneration.ConstraintVariable(0.62*x21.0*x4<-0.51)
c 30 -> SNNT.QueryGeneration.IsMaxCase(Formula[-1.0*x51.0*x9<0.0, -1.0*x51.0*x8<0.0, -1.0*x51.0*x6<0.0, -1.0*x51.0*x7<0.0, -1.0*x51.0*x13<0.0, -1.0*x51.0*x11<0.0, -1.0*x51.0*x10<0.0, -1.0*x51.0*x12<0.0])
c 6 -> SNNT.QueryGeneration.ConstraintVariable(200.0*x2<=100.0)
c 234 -> Intermediate
c 219 -> Intermediate
c 272 -> SNNT.QueryGeneration.ApproxCase(4, 1)
c 182 -> Intermediate
c 164 -> Intermediate
c 186 -> Intermediate
c 253 -> Intermediate
c 64 -> Intermediate
c 267 -> Intermediate
c 90 -> Intermediate
c 4 -> SNNT.QueryGeneration.ConstraintVariable(40.0*x4<=20.0)
c 13 -> SNNT.QueryGeneration.ConstraintVariable(1.0*x9<=100.0)
c 104 -> Intermediate
c 179 -> Intermediate
c 43 -> Intermediate
c 11 -> SNNT.QueryGeneration.ConstraintVariable(1.0*x7<=100.0)
c 171 -> Intermediate
c 85 -> Intermediate
c 119 -> Intermediate
c 39 -> Intermediate
c 216 -> Intermediate
c 126 -> Intermediate
c 108 -> Intermediate
c 156 -> Intermediate
c 2 -> SNNT.QueryGeneration.ConstraintVariable(16000.0*x1<=8000.0)
c 10 -> SNNT.QueryGeneration.ConstraintVariable(1.0*x6<=100.0)
c 27 -> Intermediate
c 124 -> Intermediate
c 261 -> Intermediate
c 144 -> Intermediate
c 273 -> Intermediate
c 257 -> Intermediate
c 200 -> Intermediate
c 290 -> SNNT.QueryGeneration.ApproxCase(10, 1)
c 20 -> SNNT.QueryGeneration.ConstraintVariable(-1.0*x7<=100.0)
c 81 -> Intermediate
c 187 -> Intermediate
c 9 -> SNNT.QueryGeneration.ConstraintVariable(1.0*x5<=100.0)
c 189 -> Intermediate
c 227 -> Intermediate
c 294 -> SNNT.QueryGeneration.ApproxCase(12, 1)
c 161 -> Intermediate
c 249 -> Intermediate
c 241 -> Intermediate
c 88 -> Intermediate
c 209 -> Intermediate
c 236 -> SNNT.QueryGeneration.ConstraintVariable(-200.0*x2<=-25.0)
c 120 -> Intermediate
c 260 -> SNNT.QueryGeneration.ApproxCase(1, 1)
c 297 -> Intermediate
c 24 -> SNNT.QueryGeneration.ConstraintVariable(-1.0*x11<=100.0)
c 8 -> SNNT.QueryGeneration.ConstraintVariable(200.0*x3<=0.0)
c 37 -> Intermediate
c 190 -> Intermediate
c 201 -> SNNT.QueryGeneration.ConstraintVariable(-0.12*x20.2*x4<=-0.08)
c 281 -> Intermediate
c 14 -> SNNT.QueryGeneration.ConstraintVariable(1.0*x10<=100.0)
c 174 -> SNNT.QueryGeneration.ConstraintVariable(3.52e7*x1<-220000.0)
c 269 -> Intermediate
c 123 -> Intermediate
c 268 -> SNNT.QueryGeneration.ApproxCase(2, 4)
c 32 -> SNNT.QueryGeneration.IsMaxCase(Formula[-1.0*x81.0*x9<0.0, 1.0*x5-1.0*x8<0.0, 1.0*x6-1.0*x8<0.0, 1.0*x7-1.0*x8<0.0, -1.0*x81.0*x13<0.0, -1.0*x81.0*x11<0.0, -1.0*x81.0*x10<0.0, -1.0*x81.0*x12<0.0])
c 197 -> Intermediate
c 233 -> Intermediate
c 196 -> Intermediate
c 262 -> SNNT.QueryGeneration.ApproxCase(2, 1)
c 210 -> Intermediate
c 151 -> SNNT.QueryGeneration.ConstraintVariable(16000.0*x1<-100.0)
c 239 -> SNNT.QueryGeneration.ConstraintVariable(200.0*x2<25.0)
c 54 -> SNNT.QueryGeneration.ConstraintVariable(200.0*x2<=0.0)
c 63 -> Intermediate
c 191 -> Intermediate
c 62 -> Intermediate
c 205 -> Intermediate
c 244 -> Intermediate
c 150 -> Intermediate
c 58 -> Intermediate
c 199 -> SNNT.QueryGeneration.ConstraintVariable(200.0*x2<=-25.0)
c 173 -> Intermediate
c 256 -> Intermediate
c 188 -> Intermediate
c 277 -> Intermediate
c 235 -> Intermediate
c 204 -> Intermediate
c 76 -> Intermediate
c 34 -> SNNT.QueryGeneration.IsMaxCase(Formula[-1.0*x61.0*x9<0.0, 1.0*x5-1.0*x6<0.0, -1.0*x61.0*x8<0.0, -1.0*x61.0*x7<0.0, -1.0*x61.0*x13<0.0, -1.0*x61.0*x11<0.0, -1.0*x61.0*x10<0.0, -1.0*x61.0*x12<0.0])
c 243 -> Intermediate
c 194 -> Intermediate
c 42 -> SNNT.QueryGeneration.IsMaxCase(Formula[1.0*x9-1.0*x10<0.0, 1.0*x5-1.0*x10<0.0, 1.0*x8-1.0*x10<0.0, 1.0*x6-1.0*x10<0.0, 1.0*x7-1.0*x10<0.0, -1.0*x101.0*x13<0.0, -1.0*x101.0*x11<0.0, -1.0*x101.0*x12<0.0])
c 87 -> Intermediate
c 132 -> Intermediate
c 140 -> Intermediate
c 202 -> SNNT.QueryGeneration.ConstraintVariable(-200.0*x2<25.0)
c 248 -> SNNT.QueryGeneration.ConstraintVariable(1.0*x1-0.06*x4<0.02)
c 180 -> Intermediate
c 255 -> Intermediate
c 160 -> SNNT.QueryGeneration.ConstraintVariable(-0.62*x2-1.0*x4<0.5)
c 289 -> Intermediate
c 49 -> Intermediate
c 291 -> Intermediate
c 106 -> Intermediate
c 94 -> Intermediate
c 225 -> Intermediate
c 102 -> Intermediate
c 259 -> Intermediate
c 70 -> Intermediate
c 21 -> SNNT.QueryGeneration.ConstraintVariable(-1.0*x8<=100.0)
c 229 -> Intermediate
c 38 -> SNNT.QueryGeneration.IsMaxCase(Formula[1.0*x9-1.0*x13<0.0, 1.0*x5-1.0*x13<0.0, 1.0*x8-1.0*x13<0.0, 1.0*x6-1.0*x13<0.0, 1.0*x7-1.0*x13<0.0, 1.0*x11-1.0*x13<0.0, 1.0*x10-1.0*x13<0.0, 1.0*x12-1.0*x13<0.0])
c 163 -> Intermediate
c 131 -> Intermediate
c 192 -> Intermediate
c 221 -> Intermediate
c 53 -> Intermediate
c 47 -> SNNT.QueryGeneration.ConstraintVariable(-0.62*x21.0*x4<-0.51)
c 175 -> Intermediate
c 286 -> SNNT.QueryGeneration.ApproxCase(8, 1)
c 3 -> SNNT.QueryGeneration.ConstraintVariable(-40.0*x4<=14.0)
c 96 -> Intermediate
c 149 -> Intermediate
c 181 -> Intermediate
c 65 -> SNNT.QueryGeneration.ConstraintVariable(-16000.0*x1<-100.0)
c 293 -> Intermediate
c ----------------------------------------
c s pmc 117511872
c feasibility queries (check_infeasibility): 11.4 k
c queries (next_query-1): 1774
c feasible conjunctions (query_construction): 9898